(declare-const $temp_9758 String)
(declare-const $temp_9760 String)
(declare-const $temp_9762 String)
(declare-const $myvar188 String)
(declare-const $myvar186 String)
(declare-const $_POST_myvar187 String)
(declare-const $myvar190 String)
(declare-const $_POST_myvar189 String)
(declare-const p1b1 Bool)
(declare-const p1b2 Bool)
(declare-const p1b3 Bool)
(declare-const p1b4 Bool)
(declare-const p1b5 Bool)
(declare-const p1b6 Bool)
(declare-const p1b7 Bool)
(declare-const p1b8 Bool)
(declare-const p1b9 Bool)
(declare-const p1b10 Bool)
(declare-const p1b11 Bool)
(declare-const p1b12 Bool)
(declare-const p1b13 Bool)
(declare-const p1b14 Bool)
(declare-const p1b15 Bool)
(declare-const p1b16 Bool)
(declare-const t_mescape_102 String)
(declare-const t_mescape_103 String)
(declare-const t_mescape_104 String)
(declare-const t_mescape_105 String)
(declare-const t_mescape_106 String)
(declare-const t_mescape_107 String)
(declare-const t_mescape_108 String)

(declare-const __cOnStStR__x30 String)
(declare-const __cOnStStR__x31 String)
(declare-const __cOnStStR__x32 String)
(declare-const __cOnStStR__x33 String)
(declare-const __cOnStStR__x34 String)
(declare-const __cOnStStR__x35 String)
(declare-const __cOnStStR__x36 String)
(declare-const __cOnStStR__x37 String)
(declare-const __cOnStStR__x38 String)
(declare-const __cOnStStR__x39 String)
(declare-const __cOnStStR__x27 String)
(declare-const __cOnStStR__x5c_x27 String)
(declare-const __cOnStStR__x5c String)
(declare-const __cOnStStR__x5c_x5c String)
(declare-const __cOnStStR__x22 String)
(declare-const __cOnStStR__x5c_x22 String)
(declare-const __cOnStStR__x0a String)
(declare-const __cOnStStR__x5c_x6e String)
(declare-const __cOnStStR__x0d String)
(declare-const __cOnStStR__x5c_x72 String)
(declare-const __cOnStStR__x1a String)
(declare-const __cOnStStR__x5c_x78_x31_x61 String)
(declare-const __cOnStStR__x3c_x53_x43_x52_x49_x50_x54_x3e_x61_x6c_x65_x72_x74_x28_x31_x29_x3c_x2f_x53_x43_x52_x49_x50_x54_x3e String)
(declare-const __cOnStStR__x6a_x61_x76_x61_x73_x63_x72_x69_x70_x74_x3a_x61_x6c_x65_x72_x74_x28_x31_x29 String)
(declare-const __cOnStStR__x4a_x61_x56_x61_x53_x63_x52_x69_x50_x74_x3a_x61_x6c_x65_x72_x74_x28_x31_x29 String)
(declare-const __cOnStStR__x4a_x61_x56_x61_x53_x63_x52_x69_x50_x74_x3a_x61_x6c_x65_x72_x74_x28_x26_x71_x75_x6f_x74_x3b_x58_x53_x53_x26_x71_x75_x6f_x74_x3b_x29 String)
(declare-const __cOnStStR__x26_x23_x31_x30_x36_x3b_x26_x23_x39_x37_x3b_x26_x23_x31_x31_x38_x3b_x26_x23_x39_x37_x3b_x26_x23_x31_x31_x35_x3b_x26_x23_x39_x39_x3b_x26_x23_x31_x31_x34_x3b_x26_x23_x31_x30_x35_x3b_x26_x23_x31_x31_x32_x3b_x26_x23_x31_x31_x36_x3b_x26_x23_x35_x38_x3b_x26_x23_x39_x37_x3b_x26_x23_x31_x30_x38_x3b_x26_x23_x31_x30_x31_x3b_x26_x23_x31_x31_x34_x3b_x26_x23_x31_x31_x36_x3b_x26_x23_x34_x30_x3b_x26_x23_x33_x39_x3b_x26_x23_x38_x38_x3b_x26_x23_x38_x33_x3b_x26_x23_x38_x33_x3b_x26_x23_x33_x39_x3b_x26_x23_x34_x31 String)
(declare-const __cOnStStR__x26_x23_x30_x30_x30_x30_x31_x30_x36_x26_x23_x30_x30_x30_x30_x30_x39_x37_x26_x23_x30_x30_x30_x30_x31_x31_x38_x26_x23_x30_x30_x30_x30_x30_x39_x37_x26_x23_x30_x30_x30_x30_x31_x31_x35_x26_x23_x30_x30_x30_x30_x30_x39_x39_x26_x23_x30_x30_x30_x30_x31_x31_x34_x26_x23_x30_x30_x30_x30_x31_x30_x35_x26_x23_x30_x30_x30_x30_x31_x31_x32_x26_x23_x30_x30_x30_x30_x31_x31_x36_x26_x23_x30_x30_x30_x30_x30_x35_x38_x26_x23_x30_x30_x30_x30_x30_x39_x37_x26_x23_x30_x30_x30_x30_x31_x30_x38_x26_x23_x30_x30_x30_x30_x31_x30_x31_x26_x23_x30_x30_x30_x30_x31_x31_x34_x26_x23_x30_x30_x30_x30_x31_x31_x36_x26_x23_x30_x30_x30_x30_x30_x34_x30_x26_x23_x30_x30_x30_x30_x30_x33_x39_x26_x23_x30_x30_x30_x30_x30_x38_x38_x26_x23_x30_x30_x30_x30_x30_x38_x33_x26_x23_x30_x30_x30_x30_x30_x38_x33_x26_x23_x30_x30_x30_x30_x30_x33_x39_x26_x23_x30_x30_x30_x30_x30_x34_x31 String)
(declare-const __cOnStStR__x26_x23_x78_x36_x41_x26_x23_x78_x36_x31_x26_x23_x78_x37_x36_x26_x23_x78_x36_x31_x26_x23_x78_x37_x33_x26_x23_x78_x36_x33_x26_x23_x78_x37_x32_x26_x23_x78_x36_x39_x26_x23_x78_x37_x30_x26_x23_x78_x37_x34_x26_x23_x78_x33_x41_x26_x23_x78_x36_x31_x26_x23_x78_x36_x43_x26_x23_x78_x36_x35_x26_x23_x78_x37_x32_x26_x23_x78_x37_x34_x26_x23_x78_x32_x38_x26_x23_x78_x32_x37_x26_x23_x78_x35_x38_x26_x23_x78_x35_x33_x26_x23_x78_x35_x33_x26_x23_x78_x32_x37_x26_x23_x78_x32_x39 String)
(declare-const __cOnStStR__x6a_x61_x76_x26_x23_x78_x30_x39_x3b_x61_x73_x63_x72_x69_x70_x74_x3a_x61_x6c_x65_x72_x74_x28_x31_x29_x3b String)
(declare-const __cOnStStR__x6a_x61_x76_x26_x23_x78_x30_x41_x3b_x61_x73_x63_x72_x69_x70_x74_x3a_x61_x6c_x65_x72_x74_x28_x31_x29_x3b String)
(declare-const __cOnStStR__x6a_x61_x76_x26_x23_x78_x30_x44_x3b_x61_x73_x63_x72_x69_x70_x74_x3a_x61_x6c_x65_x72_x74_x28_x31_x29_x3b String)
(declare-const __cOnStStR__x20_x4f_x4e_x4c_x4f_x41_x44_x3d_x61_x6c_x65_x72_x74_x28_x31_x29 String)
(declare-const __cOnStStR__x2d_x61_x6c_x65_x72_x74_x28_x31_x29 String)

(define-fun intVal ((str String)) Bool
(RegexIn str  (RegexStar (RegexUnion (RegexUnion (RegexUnion (RegexUnion (RegexUnion (RegexDigit __cOnStStR__x30) (RegexUnion (RegexDigit __cOnStStR__x31 ) (RegexDigit __cOnStStR__x32)))  (RegexUnion (RegexDigit __cOnStStR__x33 ) (RegexDigit __cOnStStR__x34)))
(RegexUnion (RegexDigit __cOnStStR__x35 ) (RegexDigit __cOnStStR__x36)))
(RegexUnion (RegexDigit __cOnStStR__x37 ) (RegexDigit __cOnStStR__x38)))
(RegexDigit __cOnStStR__x39 ) )) ) )
(assert (= p1b1 (= $myvar188 $temp_9760 )))
(assert p1b1 )
(assert (= p1b2 (= $_POST_myvar187 $temp_9762 )))
(assert p1b2 )
(assert (= p1b3 (= $myvar190 $temp_9758 )))
(assert p1b3 )
(assert (= p1b4 (= t_mescape_102 (Replace $myvar186 __cOnStStR__x27 __cOnStStR__x5c_x27))))
(assert (= p1b5 (= t_mescape_103 (Replace t_mescape_102 __cOnStStR__x5c __cOnStStR__x5c_x5c))))
(assert (= p1b6 (= t_mescape_104 (Replace t_mescape_103 __cOnStStR__x22 __cOnStStR__x5c_x22))))
(assert (= p1b7 (= t_mescape_105 (Replace t_mescape_104 __cOnStStR__x0a __cOnStStR__x5c_x6e))))
(assert (= p1b8 (= t_mescape_106 (Replace t_mescape_105 __cOnStStR__x0d __cOnStStR__x5c_x72))))
(assert (= p1b9 (= t_mescape_107 (Replace t_mescape_106 __cOnStStR__x1a __cOnStStR__x5c_x78_x31_x61))))
(assert (= p1b10 (= $temp_9758 t_mescape_107)))
(assert (= p1b11 (or (Contains $temp_9758 __cOnStStR__x5c_x27) (Contains $temp_9758 __cOnStStR__x5c_x5c)  (Contains $temp_9758 __cOnStStR__x5c_x22) )))
(assert p1b11)
(assert (= p1b12(= $myvar186 $temp_9758)))(assert p1b12)
(assert (= p1b13 (= $myvar186 $temp_9762 )))
(assert p1b13 )
(assert (= p1b14 (= $_POST_myvar189 $temp_9760 )))
(assert p1b14 )
(assert (= p1b15 (or  (= $_POST_myvar187 __cOnStStR__x3c_x53_x43_x52_x49_x50_x54_x3e_x61_x6c_x65_x72_x74_x28_x31_x29_x3c_x2f_x53_x43_x52_x49_x50_x54_x3e )
(= $_POST_myvar187 __cOnStStR__x6a_x61_x76_x61_x73_x63_x72_x69_x70_x74_x3a_x61_x6c_x65_x72_x74_x28_x31_x29 )
(= $_POST_myvar187 __cOnStStR__x4a_x61_x56_x61_x53_x63_x52_x69_x50_x74_x3a_x61_x6c_x65_x72_x74_x28_x31_x29 )
(= $_POST_myvar187 __cOnStStR__x4a_x61_x56_x61_x53_x63_x52_x69_x50_x74_x3a_x61_x6c_x65_x72_x74_x28_x26_x71_x75_x6f_x74_x3b_x58_x53_x53_x26_x71_x75_x6f_x74_x3b_x29 )
(= $_POST_myvar187 __cOnStStR__x26_x23_x31_x30_x36_x3b_x26_x23_x39_x37_x3b_x26_x23_x31_x31_x38_x3b_x26_x23_x39_x37_x3b_x26_x23_x31_x31_x35_x3b_x26_x23_x39_x39_x3b_x26_x23_x31_x31_x34_x3b_x26_x23_x31_x30_x35_x3b_x26_x23_x31_x31_x32_x3b_x26_x23_x31_x31_x36_x3b_x26_x23_x35_x38_x3b_x26_x23_x39_x37_x3b_x26_x23_x31_x30_x38_x3b_x26_x23_x31_x30_x31_x3b_x26_x23_x31_x31_x34_x3b_x26_x23_x31_x31_x36_x3b_x26_x23_x34_x30_x3b_x26_x23_x33_x39_x3b_x26_x23_x38_x38_x3b_x26_x23_x38_x33_x3b_x26_x23_x38_x33_x3b_x26_x23_x33_x39_x3b_x26_x23_x34_x31 )
(= $_POST_myvar187 __cOnStStR__x26_x23_x30_x30_x30_x30_x31_x30_x36_x26_x23_x30_x30_x30_x30_x30_x39_x37_x26_x23_x30_x30_x30_x30_x31_x31_x38_x26_x23_x30_x30_x30_x30_x30_x39_x37_x26_x23_x30_x30_x30_x30_x31_x31_x35_x26_x23_x30_x30_x30_x30_x30_x39_x39_x26_x23_x30_x30_x30_x30_x31_x31_x34_x26_x23_x30_x30_x30_x30_x31_x30_x35_x26_x23_x30_x30_x30_x30_x31_x31_x32_x26_x23_x30_x30_x30_x30_x31_x31_x36_x26_x23_x30_x30_x30_x30_x30_x35_x38_x26_x23_x30_x30_x30_x30_x30_x39_x37_x26_x23_x30_x30_x30_x30_x31_x30_x38_x26_x23_x30_x30_x30_x30_x31_x30_x31_x26_x23_x30_x30_x30_x30_x31_x31_x34_x26_x23_x30_x30_x30_x30_x31_x31_x36_x26_x23_x30_x30_x30_x30_x30_x34_x30_x26_x23_x30_x30_x30_x30_x30_x33_x39_x26_x23_x30_x30_x30_x30_x30_x38_x38_x26_x23_x30_x30_x30_x30_x30_x38_x33_x26_x23_x30_x30_x30_x30_x30_x38_x33_x26_x23_x30_x30_x30_x30_x30_x33_x39_x26_x23_x30_x30_x30_x30_x30_x34_x31 )
(= $_POST_myvar187 __cOnStStR__x26_x23_x78_x36_x41_x26_x23_x78_x36_x31_x26_x23_x78_x37_x36_x26_x23_x78_x36_x31_x26_x23_x78_x37_x33_x26_x23_x78_x36_x33_x26_x23_x78_x37_x32_x26_x23_x78_x36_x39_x26_x23_x78_x37_x30_x26_x23_x78_x37_x34_x26_x23_x78_x33_x41_x26_x23_x78_x36_x31_x26_x23_x78_x36_x43_x26_x23_x78_x36_x35_x26_x23_x78_x37_x32_x26_x23_x78_x37_x34_x26_x23_x78_x32_x38_x26_x23_x78_x32_x37_x26_x23_x78_x35_x38_x26_x23_x78_x35_x33_x26_x23_x78_x35_x33_x26_x23_x78_x32_x37_x26_x23_x78_x32_x39 )
(= $_POST_myvar187 __cOnStStR__x6a_x61_x76_x26_x23_x78_x30_x39_x3b_x61_x73_x63_x72_x69_x70_x74_x3a_x61_x6c_x65_x72_x74_x28_x31_x29_x3b )
(= $_POST_myvar187 __cOnStStR__x6a_x61_x76_x26_x23_x78_x30_x41_x3b_x61_x73_x63_x72_x69_x70_x74_x3a_x61_x6c_x65_x72_x74_x28_x31_x29_x3b )
(= $_POST_myvar187 __cOnStStR__x6a_x61_x76_x26_x23_x78_x30_x44_x3b_x61_x73_x63_x72_x69_x70_x74_x3a_x61_x6c_x65_x72_x74_x28_x31_x29_x3b )
(= $_POST_myvar187 __cOnStStR__x20_x4f_x4e_x4c_x4f_x41_x44_x3d_x61_x6c_x65_x72_x74_x28_x31_x29 )
(= $_POST_myvar187 __cOnStStR__x2d_x61_x6c_x65_x72_x74_x28_x31_x29 )
)))
(assert p1b15 )
(assert (= p1b16 (or  (= $_POST_myvar189 __cOnStStR__x3c_x53_x43_x52_x49_x50_x54_x3e_x61_x6c_x65_x72_x74_x28_x31_x29_x3c_x2f_x53_x43_x52_x49_x50_x54_x3e )
(= $_POST_myvar189 __cOnStStR__x6a_x61_x76_x61_x73_x63_x72_x69_x70_x74_x3a_x61_x6c_x65_x72_x74_x28_x31_x29 )
(= $_POST_myvar189 __cOnStStR__x4a_x61_x56_x61_x53_x63_x52_x69_x50_x74_x3a_x61_x6c_x65_x72_x74_x28_x31_x29 )
(= $_POST_myvar189 __cOnStStR__x4a_x61_x56_x61_x53_x63_x52_x69_x50_x74_x3a_x61_x6c_x65_x72_x74_x28_x26_x71_x75_x6f_x74_x3b_x58_x53_x53_x26_x71_x75_x6f_x74_x3b_x29 )
(= $_POST_myvar189 __cOnStStR__x26_x23_x31_x30_x36_x3b_x26_x23_x39_x37_x3b_x26_x23_x31_x31_x38_x3b_x26_x23_x39_x37_x3b_x26_x23_x31_x31_x35_x3b_x26_x23_x39_x39_x3b_x26_x23_x31_x31_x34_x3b_x26_x23_x31_x30_x35_x3b_x26_x23_x31_x31_x32_x3b_x26_x23_x31_x31_x36_x3b_x26_x23_x35_x38_x3b_x26_x23_x39_x37_x3b_x26_x23_x31_x30_x38_x3b_x26_x23_x31_x30_x31_x3b_x26_x23_x31_x31_x34_x3b_x26_x23_x31_x31_x36_x3b_x26_x23_x34_x30_x3b_x26_x23_x33_x39_x3b_x26_x23_x38_x38_x3b_x26_x23_x38_x33_x3b_x26_x23_x38_x33_x3b_x26_x23_x33_x39_x3b_x26_x23_x34_x31 )
(= $_POST_myvar189 __cOnStStR__x26_x23_x30_x30_x30_x30_x31_x30_x36_x26_x23_x30_x30_x30_x30_x30_x39_x37_x26_x23_x30_x30_x30_x30_x31_x31_x38_x26_x23_x30_x30_x30_x30_x30_x39_x37_x26_x23_x30_x30_x30_x30_x31_x31_x35_x26_x23_x30_x30_x30_x30_x30_x39_x39_x26_x23_x30_x30_x30_x30_x31_x31_x34_x26_x23_x30_x30_x30_x30_x31_x30_x35_x26_x23_x30_x30_x30_x30_x31_x31_x32_x26_x23_x30_x30_x30_x30_x31_x31_x36_x26_x23_x30_x30_x30_x30_x30_x35_x38_x26_x23_x30_x30_x30_x30_x30_x39_x37_x26_x23_x30_x30_x30_x30_x31_x30_x38_x26_x23_x30_x30_x30_x30_x31_x30_x31_x26_x23_x30_x30_x30_x30_x31_x31_x34_x26_x23_x30_x30_x30_x30_x31_x31_x36_x26_x23_x30_x30_x30_x30_x30_x34_x30_x26_x23_x30_x30_x30_x30_x30_x33_x39_x26_x23_x30_x30_x30_x30_x30_x38_x38_x26_x23_x30_x30_x30_x30_x30_x38_x33_x26_x23_x30_x30_x30_x30_x30_x38_x33_x26_x23_x30_x30_x30_x30_x30_x33_x39_x26_x23_x30_x30_x30_x30_x30_x34_x31 )
(= $_POST_myvar189 __cOnStStR__x26_x23_x78_x36_x41_x26_x23_x78_x36_x31_x26_x23_x78_x37_x36_x26_x23_x78_x36_x31_x26_x23_x78_x37_x33_x26_x23_x78_x36_x33_x26_x23_x78_x37_x32_x26_x23_x78_x36_x39_x26_x23_x78_x37_x30_x26_x23_x78_x37_x34_x26_x23_x78_x33_x41_x26_x23_x78_x36_x31_x26_x23_x78_x36_x43_x26_x23_x78_x36_x35_x26_x23_x78_x37_x32_x26_x23_x78_x37_x34_x26_x23_x78_x32_x38_x26_x23_x78_x32_x37_x26_x23_x78_x35_x38_x26_x23_x78_x35_x33_x26_x23_x78_x35_x33_x26_x23_x78_x32_x37_x26_x23_x78_x32_x39 )
(= $_POST_myvar189 __cOnStStR__x6a_x61_x76_x26_x23_x78_x30_x39_x3b_x61_x73_x63_x72_x69_x70_x74_x3a_x61_x6c_x65_x72_x74_x28_x31_x29_x3b )
(= $_POST_myvar189 __cOnStStR__x6a_x61_x76_x26_x23_x78_x30_x41_x3b_x61_x73_x63_x72_x69_x70_x74_x3a_x61_x6c_x65_x72_x74_x28_x31_x29_x3b )
(= $_POST_myvar189 __cOnStStR__x6a_x61_x76_x26_x23_x78_x30_x44_x3b_x61_x73_x63_x72_x69_x70_x74_x3a_x61_x6c_x65_x72_x74_x28_x31_x29_x3b )
(= $_POST_myvar189 __cOnStStR__x20_x4f_x4e_x4c_x4f_x41_x44_x3d_x61_x6c_x65_x72_x74_x28_x31_x29 )
(= $_POST_myvar189 __cOnStStR__x2d_x61_x6c_x65_x72_x74_x28_x31_x29 )
)))
(assert p1b16 )
(check-sat)
